35
100
80	1
77	1
76	2
74	2
72	1
71	1
70	1
69	1
68	1
67	1
64	1
61	1
60	2
58	1
57	1
56	1
54	1
53	2
51	1
50	1
49	1
48	4
47	1
44	2
42	1
41	2
37	2
36	1
35	1
33	3
31	1
26	3
25	1
22	2
21	1
